
Gurobi 10.0.1 (linux64) logging started Wed May 31 01:26:32 2023

Set parameter LogFile to value "logFiles/N-1L-B/N-1L-13U-10F-23V-120D-varprod.log"
Gurobi Optimizer version 10.0.1 build v10.0.1rc0 (linux64)

CPU model: Intel(R) Xeon(R) Gold 5115 CPU @ 2.40GHz, instruction set [SSE2|AVX|AVX2|AVX512]
Thread count: 20 physical cores, 40 logical processors, using up to 20 threads

Optimize a model with 66862 rows, 924143 columns and 5412372 nonzeros
Model fingerprint: 0x77ce6641
Variable types: 1774 continuous, 922369 integer (922369 binary)
Coefficient statistics:
  Matrix range     [1e+00, 2e+05]
  Objective range  [4e+01, 3e+07]
  Bounds range     [1e+00, 1e+00]
  RHS range        [1e+00, 2e+06]
Presolve removed 33603 rows and 35118 columns (presolve time = 5s) ...
Presolve removed 34789 rows and 63458 columns (presolve time = 10s) ...
Presolve removed 34789 rows and 63458 columns (presolve time = 15s) ...
Presolve removed 34726 rows and 63395 columns
Presolve time: 17.52s
Presolved: 32136 rows, 860748 columns, 4161705 nonzeros
Variable types: 1763 continuous, 858985 integer (858985 binary)
Deterministic concurrent LP optimizer: primal simplex, dual simplex, and barrier
Showing barrier log only...

Root barrier log...

Ordering time: 0.93s

Barrier statistics:
 AA' NZ     : 2.092e+06
 Factor NZ  : 7.680e+06 (roughly 400 MB of memory)
 Factor Ops : 1.185e+10 (less than 1 second per iteration)
 Threads    : 17

                  Objective                Residual
Iter       Primal          Dual         Primal    Dual     Compl     Time
   0  -2.02438450e+16  4.90758552e+12  2.46e+09 5.97e+05  1.02e+11    27s
   1  -5.69402001e+15  5.81690310e+12  6.94e+08 5.22e+05  2.89e+10    28s
   2  -9.16911403e+14  4.94540264e+12  1.13e+08 1.01e+04  4.73e+09    28s
   3  -2.12738231e+13  2.74076404e+12  2.62e+06 6.55e+01  1.11e+08    28s
   4  -9.61612291e+12  9.07503771e+11  1.18e+06 1.86e-09  5.04e+07    29s
   5  -1.60468619e+12  8.58068430e+11  1.97e+05 1.98e-09  8.84e+06    29s
   6  -8.69464685e+11  7.77958786e+11  1.07e+05 1.51e-09  4.93e+06    29s
   7  -4.56819715e+11  6.57034093e+11  5.62e+04 1.40e-09  2.66e+06    30s
   8  -2.41682337e+11  4.89511169e+11  2.98e+04 1.16e-09  1.42e+06    30s
   9  -1.25907309e+11  4.01558902e+11  1.56e+04 1.22e-09  7.99e+05    30s
  10  -4.33032759e+10  3.26111493e+11  5.51e+03 1.16e-09  3.77e+05    31s
  11  -1.74502422e+10  1.61930404e+11  2.34e+03 1.40e-09  1.61e+05    31s
  12  -1.38316464e+09  9.84768481e+10  3.65e+02 1.75e-09  6.57e+04    31s
  13   1.59169395e+08  4.21212974e+10  1.76e+02 1.51e-09  2.73e+04    32s
  14   1.94315105e+08  4.15888178e+10  1.72e+02 1.25e-08  2.69e+04    32s
  15   2.16193244e+08  3.89235279e+10  1.69e+02 1.02e-08  2.52e+04    33s
  16   3.19551847e+08  3.82233845e+10  1.57e+02 1.05e-08  2.45e+04    33s
  17   7.17983399e+08  2.61466492e+10  1.08e+02 6.59e-08  1.64e+04    33s
  18   1.08787147e+09  1.93595558e+10  6.34e+01 5.77e-08  1.16e+04    34s
  19   1.28604113e+09  1.47990792e+10  3.98e+01 4.07e-08  8.47e+03    34s
  20   1.40819888e+09  1.05768602e+10  2.55e+01 2.84e-08  5.76e+03    35s
  21   1.42044627e+09  9.37639197e+09  2.41e+01 4.07e-08  5.04e+03    35s
  22   1.43198382e+09  8.83035947e+09  2.28e+01 4.14e-08  4.70e+03    35s
  23   1.46059989e+09  7.35971990e+09  1.95e+01 3.15e-08  3.80e+03    36s
  24   1.54126015e+09  5.97030577e+09  1.04e+01 5.27e-08  2.79e+03    36s
  25   1.54870143e+09  5.07255954e+09  9.68e+00 4.80e-08  2.26e+03    37s
  26   1.55970356e+09  4.69704039e+09  8.65e+00 4.41e-08  2.02e+03    37s
  27   1.58377094e+09  4.32206378e+09  7.49e+00 4.26e-08  1.76e+03    38s
  28   1.59062442e+09  3.76440158e+09  6.65e+00 5.46e-08  1.42e+03    38s
  29   1.60462495e+09  2.90613260e+09  5.56e+00 6.98e-08  8.71e+02    39s
  30   1.62011871e+09  2.82271399e+09  4.36e+00 6.61e-08  7.87e+02    39s
  31   1.63283608e+09  2.45740797e+09  3.51e+00 4.12e-08  5.38e+02    40s
  32   1.64638742e+09  2.26874424e+09  2.47e+00 5.49e-08  3.97e+02    40s
  33   1.65676753e+09  2.23416872e+09  1.79e+00 5.37e-08  3.60e+02    40s
  34   1.66123677e+09  1.97019691e+09  1.46e+00 5.91e-08  1.94e+02    41s
  35   1.66952381e+09  1.89070069e+09  8.47e-01 4.39e-08  1.35e+02    41s
  36   1.67260029e+09  1.81188925e+09  6.33e-01 3.99e-08  8.44e+01    42s
  37   1.67702465e+09  1.77894007e+09  3.86e-01 3.14e-08  6.09e+01    42s
  38   1.67995157e+09  1.77100752e+09  2.71e-01 3.17e-08  5.40e+01    43s
  39   1.68025927e+09  1.76749966e+09  2.63e-01 5.01e-08  5.17e+01    43s
  40   1.68069113e+09  1.76394354e+09  2.51e-01 3.10e-08  4.93e+01    43s
  41   1.68171753e+09  1.75916319e+09  2.22e-01 4.88e-08  4.58e+01    44s
  42   1.68343201e+09  1.75291461e+09  1.77e-01 4.96e-08  4.10e+01    44s
  43   1.68459894e+09  1.74247134e+09  1.51e-01 4.13e-08  3.41e+01    45s
  44   1.68555318e+09  1.74177265e+09  1.39e-01 5.13e-08  3.31e+01    45s
  45   1.68679764e+09  1.73725005e+09  1.24e-01 4.76e-08  2.97e+01    45s
  46   1.68776568e+09  1.73253113e+09  1.11e-01 6.30e-08  2.63e+01    46s
  47   1.68826777e+09  1.72825774e+09  1.04e-01 5.67e-08  2.35e+01    46s
  48   1.69019383e+09  1.72468385e+09  7.79e-02 4.38e-08  2.02e+01    47s
  49   1.69159514e+09  1.72325439e+09  6.36e-02 6.05e-08  1.86e+01    47s
  50   1.69256295e+09  1.72117350e+09  5.51e-02 5.41e-08  1.68e+01    48s
  51   1.69370300e+09  1.71600655e+09  4.59e-02 5.30e-08  1.31e+01    48s
  52   1.69405346e+09  1.71310273e+09  4.33e-02 5.27e-08  1.12e+01    49s
  53   1.69442127e+09  1.71217728e+09  4.06e-02 7.28e-08  1.04e+01    49s
  54   1.69567847e+09  1.71141811e+09  3.19e-02 6.26e-08  9.22e+00    50s
  55   1.69760821e+09  1.70980956e+09  2.28e-02 7.64e-08  7.14e+00    50s
  56   1.69925096e+09  1.70670887e+09  1.54e-02 5.16e-08  4.37e+00    51s
  57   1.70029427e+09  1.70614245e+09  1.05e-02 6.66e-08  3.42e+00    52s
  58   1.70075090e+09  1.70498056e+09  8.49e-03 6.74e-08  2.48e+00    52s
  59   1.70127537e+09  1.70430927e+09  6.23e-03 8.74e-08  1.78e+00    53s
  60   1.70186062e+09  1.70374780e+09  3.79e-03 5.70e-08  1.11e+00    53s
  61   1.70219634e+09  1.70327305e+09  2.40e-03 5.89e-08  6.32e-01    54s
  62   1.70235803e+09  1.70310473e+09  1.75e-03 4.18e-08  4.39e-01    54s
  63   1.70259599e+09  1.70300142e+09  8.15e-04 4.21e-08  2.38e-01    55s
  64   1.70264984e+09  1.70289694e+09  6.10e-04 6.10e-08  1.45e-01    55s
  65   1.70275028e+09  1.70285345e+09  2.36e-04 4.87e-08  6.07e-02    55s
  66   1.70280255e+09  1.70282480e+09  4.64e-05 7.24e-08  1.31e-02    56s
  67   1.70281142e+09  1.70281783e+09  1.70e-05 8.11e-08  3.79e-03    56s
  68   1.70281401e+09  1.70281727e+09  8.40e-06 7.71e-08  1.92e-03    56s
  69   1.70281629e+09  1.70281679e+09  1.71e-06 5.89e-08  2.93e-04    57s
  70   1.70281665e+09  1.70281669e+09  9.79e-08 9.41e-08  2.17e-05    57s
  71   1.70281666e+09  1.70281667e+09  4.87e-08 5.86e-08  7.04e-06    58s
  72   1.70281667e+09  1.70281667e+09  1.30e-07 7.52e-08  1.78e-07    58s
  73   1.70281667e+09  1.70281667e+09  4.79e-08 1.20e-07  9.94e-11    58s

Barrier solved model in 73 iterations and 58.39 seconds (48.47 work units)
Optimal objective 1.70281667e+09


Root crossover log...

   26684 DPushes remaining with DInf 2.6950126e-06                59s
       0 DPushes remaining with DInf 0.0000000e+00                59s

    1652 PPushes remaining with PInf 0.0000000e+00                59s
       0 PPushes remaining with PInf 0.0000000e+00                59s

  Push phase complete: Pinf 0.0000000e+00, Dinf 3.0576400e+02     59s


Root simplex log...

Iteration    Objective       Primal Inf.    Dual Inf.      Time
   28283    1.7028167e+09   0.000000e+00   3.057640e+02     59s
   28285    1.7028167e+09   0.000000e+00   0.000000e+00     59s
Concurrent spin time: 0.01s

Solved with barrier
   28285    1.7028167e+09   0.000000e+00   0.000000e+00     60s

Root relaxation: objective 1.702817e+09, 28285 iterations, 38.65 seconds (27.21 work units)
Total elapsed time = 60.95s

    Nodes    |    Current Node    |     Objective Bounds      |     Work
 Expl Unexpl |  Obj  Depth IntInf | Incumbent    BestBd   Gap | It/Node Time

     0     0 1.7028e+09    0  258          - 1.7028e+09      -     -   65s
     0     0 1.7028e+09    0  272          - 1.7028e+09      -     -  113s
     0     0 1.7028e+09    0  267          - 1.7028e+09      -     -  124s
     0     0 1.7027e+09    0  302          - 1.7027e+09      -     -  137s
     0     0 1.7027e+09    0  305          - 1.7027e+09      -     -  146s
     0     0 1.7027e+09    0  303          - 1.7027e+09      -     -  149s
     0     0 1.7027e+09    0  300          - 1.7027e+09      -     -  164s
H    0     0                    1.658824e+09 1.7027e+09  2.65%     -  206s
H    0     0                    1.694768e+09 1.7027e+09  0.47%     -  371s
     0     0 1.7027e+09    0  306 1.6948e+09 1.7027e+09  0.47%     -  373s
     0     0 1.7027e+09    0  306 1.6948e+09 1.7027e+09  0.47%     -  374s
     0     0 1.7027e+09    0  300 1.6948e+09 1.7027e+09  0.47%     -  387s
H    0     0                    1.694805e+09 1.7027e+09  0.47%     -  524s
     0     0 1.7027e+09    0  312 1.6948e+09 1.7027e+09  0.47%     -  528s
     0     0 1.7027e+09    0  266 1.6948e+09 1.7027e+09  0.47%     -  539s
     0     0 1.7027e+09    0  279 1.6948e+09 1.7027e+09  0.47%     -  638s
     0     0 1.7027e+09    0  274 1.6948e+09 1.7027e+09  0.47%     -  641s
     0     0 1.7027e+09    0  300 1.6948e+09 1.7027e+09  0.47%     -  661s
     0     0 1.7027e+09    0  296 1.6948e+09 1.7027e+09  0.47%     -  676s
     0     0 1.7027e+09    0  340 1.6948e+09 1.7027e+09  0.47%     -  687s
     0     0 1.7027e+09    0  331 1.6948e+09 1.7027e+09  0.47%     -  700s
     0     0 1.7027e+09    0  309 1.6948e+09 1.7027e+09  0.47%     -  708s
     0     0 1.7027e+09    0  336 1.6948e+09 1.7027e+09  0.47%     -  719s
     0     0 1.7027e+09    0  337 1.6948e+09 1.7027e+09  0.47%     -  721s
     0     0 1.7027e+09    0  298 1.6948e+09 1.7027e+09  0.47%     -  731s
     0     0 1.7027e+09    0  295 1.6948e+09 1.7027e+09  0.47%     -  735s
     0     0 1.7027e+09    0  294 1.6948e+09 1.7027e+09  0.47%     -  738s
     0     0 1.7027e+09    0  292 1.6948e+09 1.7027e+09  0.47%     -  742s
     0     0 1.7027e+09    0  270 1.6948e+09 1.7027e+09  0.47%     -  748s
     0     0 1.7027e+09    0  285 1.6948e+09 1.7027e+09  0.47%     -  750s
     0     0 1.7027e+09    0  284 1.6948e+09 1.7027e+09  0.47%     -  755s
     0     0 1.7027e+09    0  268 1.6948e+09 1.7027e+09  0.47%     -  768s
     0     2 1.7027e+09    0  261 1.6948e+09 1.7027e+09  0.47%     -  824s
     1     4 1.7027e+09    1  269 1.6948e+09 1.7027e+09  0.47% 12530  846s
     3     8 1.7027e+09    2  278 1.6948e+09 1.7027e+09  0.47%  4564  878s
     7    16 1.7027e+09    3  288 1.6948e+09 1.7027e+09  0.47%  2570  905s
    15    32 1.7027e+09    4  314 1.6948e+09 1.7027e+09  0.47%  1519  978s
H   31    52                    1.696299e+09 1.7027e+09  0.38%  1415 1827s
H   33    52                    1.697374e+09 1.7027e+09  0.31%  1386 1829s
H   41    52                    1.698098e+09 1.7027e+09  0.27%  1277 1831s
H   51    72                    1.698317e+09 1.7027e+09  0.26%  1225 2495s
H   56    72                    1.698387e+09 1.7027e+09  0.25%  1171 2496s
    71    92 1.7027e+09    6  305 1.6984e+09 1.7027e+09  0.25%  1055 2544s
    91   112 1.7027e+09    7  298 1.6984e+09 1.7027e+09  0.25%   933 2581s
   111   144 1.7027e+09    8  297 1.6984e+09 1.7027e+09  0.25%   904 2623s
   143   229 1.7027e+09    8  291 1.6984e+09 1.7027e+09  0.25%   804 2849s
   228   467 1.7027e+09    9  293 1.6984e+09 1.7027e+09  0.25%   820 3244s
   481   807 1.7024e+09   12  328 1.6984e+09 1.7027e+09  0.25%   917 3637s
   856  1195 1.7024e+09   27  237 1.6984e+09 1.7027e+09  0.25%   735 3935s
  1292  1568 1.7024e+09   40  241 1.6984e+09 1.7027e+09  0.25%   565 4169s
  1719  2061 1.7024e+09   54  205 1.6984e+09 1.7027e+09  0.25%   476 4393s
  2266  2550 1.7024e+09   69  227 1.6984e+09 1.7027e+09  0.25%   405 4592s
  2796  3079 1.7024e+09  101  216 1.6984e+09 1.7027e+09  0.25%   361 4752s
  3369  3097 1.7024e+09  114  168 1.6984e+09 1.7027e+09  0.25%   322 5811s
H 3370  3097                    1.698408e+09 1.7027e+09  0.25%   322 5813s
H 3373  3097                    1.698433e+09 1.7027e+09  0.25%   322 5814s
H 3374  3096                    1.698555e+09 1.7027e+09  0.24%   323 5816s
H 3379  3096                    1.698566e+09 1.7027e+09  0.24%   322 5817s
  3390  3659 1.7024e+09  115  164 1.6986e+09 1.7027e+09  0.24%   322 5988s
  4007  4210 1.7024e+09  137  174 1.6986e+09 1.7027e+09  0.24%   292 6136s
  4624  4689 1.7023e+09  161  143 1.6986e+09 1.7027e+09  0.24%   269 6301s
H 4757  4689                    1.698571e+09 1.7027e+09  0.24%   266 6302s
H 4997  4689                    1.698588e+09 1.7027e+09  0.24%   258 6304s
  5170  5218 1.7023e+09  189  131 1.6986e+09 1.7027e+09  0.24%   252 6445s
  5774  5807 1.7023e+09  222  139 1.6986e+09 1.7027e+09  0.24%   237 6578s
  6433  6407 1.7023e+09  254  103 1.6986e+09 1.7027e+09  0.24%   221 6718s
  7066  6994 1.7022e+09  288   99 1.6986e+09 1.7027e+09  0.24%   206 6834s
  7721  7645 1.7022e+09  323  101 1.6986e+09 1.7027e+09  0.24%   194 6949s
  8416  8280 1.7022e+09  358   95 1.6986e+09 1.7027e+09  0.24%   182 7045s
  9093  8899 1.7022e+09  392   88 1.6986e+09 1.7027e+09  0.24%   172 7151s
  9768  9515 1.7022e+09  427   93 1.6986e+09 1.7027e+09  0.24%   163 7275s
 10447 10116 1.7022e+09  462   87 1.6986e+09 1.7027e+09  0.24%   157 7387s
 11097 10749 1.7022e+09  497   86 1.6986e+09 1.7027e+09  0.24%   152 7520s

Cutting planes:
  Cover: 23
  Implied bound: 41
  Clique: 1
  MIR: 57
  Flow cover: 41
  GUB cover: 5
  RLT: 2
  Relax-and-lift: 4

Explored 11743 nodes (1803982 simplex iterations) in 10800.77 seconds (12087.56 work units)
Thread count was 20 (of 40 available processors)

Solution count 10: 1.69859e+09 1.69857e+09 1.69857e+09 ... 1.69737e+09

Time limit reached
Best objective 1.698588309513e+09, best bound 1.702699293514e+09, gap 0.2420%

Gurobi 10.0.1 (linux64) logging started Thu Jun  1 01:20:25 2023

Set parameter LogFile to value "logFiles/N-1L-B/N-1L-13U-10F-23V-120D-varprod.log"
Gurobi Optimizer version 10.0.1 build v10.0.1rc0 (linux64)

CPU model: Intel(R) Xeon(R) Gold 5115 CPU @ 2.40GHz, instruction set [SSE2|AVX|AVX2|AVX512]
Thread count: 20 physical cores, 40 logical processors, using up to 20 threads

Optimize a model with 66862 rows, 924143 columns and 5412248 nonzeros
Model fingerprint: 0xcbc38d79
Variable types: 1774 continuous, 922369 integer (922369 binary)
Coefficient statistics:
  Matrix range     [1e+00, 2e+05]
  Objective range  [4e+01, 3e+07]
  Bounds range     [1e+00, 1e+00]
  RHS range        [1e+00, 2e+06]
Presolve removed 33603 rows and 35242 columns (presolve time = 5s) ...
Presolve removed 34789 rows and 63582 columns (presolve time = 10s) ...
Presolve removed 34789 rows and 63582 columns (presolve time = 15s) ...
Presolve removed 34726 rows and 63519 columns
Presolve time: 17.46s
Presolved: 32136 rows, 860624 columns, 4161457 nonzeros
Variable types: 1763 continuous, 858861 integer (858861 binary)
Deterministic concurrent LP optimizer: primal simplex, dual simplex, and barrier
Showing barrier log only...

Root barrier log...

Ordering time: 0.99s

Barrier statistics:
 AA' NZ     : 2.092e+06
 Factor NZ  : 7.680e+06 (roughly 400 MB of memory)
 Factor Ops : 1.185e+10 (less than 1 second per iteration)
 Threads    : 17

                  Objective                Residual
Iter       Primal          Dual         Primal    Dual     Compl     Time
   0  -2.02439096e+16  4.81308461e+12  2.46e+09 5.97e+05  1.02e+11    27s
   1  -5.69414705e+15  5.72228379e+12  6.94e+08 5.22e+05  2.89e+10    27s
   2  -9.17031997e+14  4.85232542e+12  1.13e+08 1.01e+04  4.73e+09    28s
   3  -2.20033866e+13  2.65720752e+12  2.71e+06 5.42e+01  1.15e+08    28s
   4  -9.36500150e+12  8.87143169e+11  1.15e+06 1.86e-09  4.92e+07    29s
   5  -1.05443086e+12  8.43321758e+11  1.30e+05 1.80e-09  5.97e+06    29s
   6  -5.80074368e+11  7.00809360e+11  7.14e+04 1.51e-09  3.34e+06    29s
   7  -4.43857644e+11  6.65303746e+11  5.46e+04 1.51e-09  2.61e+06    30s
   8  -2.51774365e+11  5.33118440e+11  3.10e+04 1.40e-09  1.52e+06    30s
   9  -1.37666331e+11  4.37021440e+11  1.71e+04 1.05e-09  8.83e+05    31s
  10  -4.29840469e+10  2.25885842e+11  5.47e+03 1.57e-09  3.04e+05    31s
  11  -1.38653406e+10  1.29767107e+11  1.90e+03 1.40e-09  1.28e+05    31s
  12  -2.48201805e+09  7.23558523e+10  5.00e+02 1.51e-09  5.33e+04    32s
  13   1.61592326e+08  2.95107787e+10  1.76e+02 2.21e-09  1.98e+04    32s
  14   1.99775814e+08  2.80913784e+10  1.72e+02 2.46e-08  1.89e+04    33s
  15   2.22122736e+08  2.47555376e+10  1.69e+02 2.91e-08  1.68e+04    33s
  16   4.85430437e+08  2.39845828e+10  1.37e+02 2.75e-08  1.57e+04    33s
  17   8.58703720e+08  1.70731929e+10  9.13e+01 1.22e-07  1.07e+04    34s
  18   1.18417725e+09  1.32579423e+10  5.22e+01 1.26e-07  7.78e+03    34s
  19   1.33638640e+09  1.11181307e+10  3.41e+01 1.01e-07  6.19e+03    35s
  20   1.41604292e+09  8.82375464e+09  2.48e+01 8.31e-08  4.71e+03    35s
  21   1.45550176e+09  6.70806902e+09  2.03e+01 6.45e-08  3.42e+03    36s
  22   1.51781648e+09  5.20066945e+09  1.36e+01 4.68e-08  2.40e+03    36s
  23   1.53572880e+09  4.32294791e+09  1.17e+01 5.06e-08  1.85e+03    37s
  24   1.56373834e+09  3.80323134e+09  9.21e+00 5.19e-08  1.50e+03    37s
  25   1.58446111e+09  3.33459730e+09  7.96e+00 5.72e-08  1.18e+03    38s
  26   1.59156125e+09  3.17380471e+09  7.08e+00 4.53e-08  1.06e+03    38s
  27   1.60799602e+09  2.74627249e+09  5.53e+00 5.26e-08  7.65e+02    39s
  28   1.63850268e+09  2.51115451e+09  2.58e+00 4.18e-08  5.51e+02    39s
  29   1.64980507e+09  2.34340066e+09  1.71e+00 4.59e-08  4.28e+02    40s
  30   1.65942690e+09  2.24601051e+09  1.24e+00 3.77e-08  3.57e+02    40s
  31   1.66036890e+09  2.06684644e+09  1.12e+00 3.89e-08  2.47e+02    41s
  32   1.66552189e+09  2.01441050e+09  8.23e-01 4.76e-08  2.10e+02    41s
  33   1.67057044e+09  1.96961744e+09  6.26e-01 6.55e-08  1.79e+02    42s
  34   1.67099301e+09  1.88474253e+09  5.88e-01 4.52e-08  1.28e+02    42s
  35   1.67469632e+09  1.82566160e+09  3.99e-01 5.03e-08  8.95e+01    43s
  36   1.68037882e+09  1.81146174e+09  1.48e-01 5.20e-08  7.68e+01    43s
  37   1.68362250e+09  1.78240237e+09  7.90e-02 4.61e-08  5.77e+01    44s
  38   1.68474797e+09  1.76790880e+09  6.61e-02 5.11e-08  4.86e+01    44s
  39   1.68585356e+09  1.75124075e+09  5.63e-02 4.06e-08  3.82e+01    45s
  40   1.68729113e+09  1.74359605e+09  4.49e-02 4.02e-08  3.29e+01    45s
  41   1.68777713e+09  1.74268427e+09  4.22e-02 4.16e-08  3.20e+01    46s
  42   1.69025803e+09  1.73039865e+09  3.06e-02 6.58e-08  2.34e+01    46s
  43   1.69113432e+09  1.72643275e+09  2.69e-02 5.55e-08  2.06e+01    47s
  44   1.69248000e+09  1.72251696e+09  2.16e-02 6.38e-08  1.75e+01    47s
  45   1.69409867e+09  1.71680172e+09  1.63e-02 6.43e-08  1.32e+01    48s
  46   1.69546209e+09  1.71576077e+09  1.21e-02 6.74e-08  1.18e+01    48s
  47   1.69649910e+09  1.71153577e+09  9.60e-03 7.75e-08  8.77e+00    49s
  48   1.69826386e+09  1.70931508e+09  6.23e-03 7.52e-08  6.44e+00    49s
  49   1.70016576e+09  1.70718357e+09  3.10e-03 6.69e-08  4.09e+00    50s
  50   1.70094011e+09  1.70566359e+09  2.10e-03 6.62e-08  2.75e+00    50s
  51   1.70127161e+09  1.70493674e+09  1.71e-03 7.31e-08  2.14e+00    51s
  52   1.70191065e+09  1.70425284e+09  9.65e-04 6.34e-08  1.37e+00    51s
  53   1.70196308e+09  1.70403855e+09  9.06e-04 8.15e-08  1.21e+00    52s
  54   1.70219842e+09  1.70369834e+09  6.51e-04 8.95e-08  8.75e-01    52s
  55   1.70233099e+09  1.70342586e+09  5.05e-04 8.36e-08  6.39e-01    52s
  56   1.70249662e+09  1.70316667e+09  3.26e-04 1.00e-07  3.91e-01    53s
  57   1.70257439e+09  1.70304193e+09  2.43e-04 6.92e-08  2.73e-01    53s
  58   1.70266561e+09  1.70293992e+09  1.51e-04 1.07e-07  1.60e-01    53s
  59   1.70274287e+09  1.70286231e+09  7.35e-05 1.14e-07  6.99e-02    54s
  60   1.70278472e+09  1.70282858e+09  3.12e-05 1.08e-07  2.57e-02    54s
  61   1.70281005e+09  1.70281977e+09  6.27e-06 8.46e-08  5.69e-03    54s
  62   1.70281523e+09  1.70281727e+09  1.73e-05 1.08e-07  1.20e-03    55s
  63   1.70281654e+09  1.70281696e+09  2.90e-05 8.09e-08  2.40e-04    55s
  64   1.70281666e+09  1.70281670e+09  3.46e-06 1.30e-07  2.28e-05    55s
  65   1.70281667e+09  1.70281667e+09  6.90e-08 1.16e-07  1.61e-06    56s
  66   1.70281667e+09  1.70281667e+09  1.28e-08 8.03e-08  3.89e-10    56s

Barrier solved model in 66 iterations and 56.42 seconds (45.99 work units)
Optimal objective 1.70281667e+09


Root crossover log...

   26683 DPushes remaining with DInf 0.0000000e+00                57s
       0 DPushes remaining with DInf 0.0000000e+00                57s

    1654 PPushes remaining with PInf 5.2091736e-04                57s
       0 PPushes remaining with PInf 0.0000000e+00                57s

  Push phase complete: Pinf 0.0000000e+00, Dinf 3.6415830e+03     57s


Root simplex log...

Iteration    Objective       Primal Inf.    Dual Inf.      Time
   28285    1.7028167e+09   0.000000e+00   3.641583e+03     57s
   28294    1.7028167e+09   0.000000e+00   0.000000e+00     57s
Concurrent spin time: 0.07s

Solved with barrier
   28294    1.7028167e+09   0.000000e+00   0.000000e+00     58s

Root relaxation: objective 1.702817e+09, 28294 iterations, 36.91 seconds (24.72 work units)
Total elapsed time = 60.06s

    Nodes    |    Current Node    |     Objective Bounds      |     Work
 Expl Unexpl |  Obj  Depth IntInf | Incumbent    BestBd   Gap | It/Node Time

     0     0 1.7028e+09    0  267          - 1.7028e+09      -     -   61s
     0     0 1.7027e+09    0  270          - 1.7027e+09      -     -  114s
     0     0 1.7027e+09    0  271          - 1.7027e+09      -     -  127s
     0     0 1.7027e+09    0  272          - 1.7027e+09      -     -  143s
     0     0 1.7027e+09    0  271          - 1.7027e+09      -     -  152s
     0     0 1.7027e+09    0  269          - 1.7027e+09      -     -  154s
     0     0 1.7027e+09    0  306          - 1.7027e+09      -     -  165s
H    0     0                    1.681578e+09 1.7027e+09  1.26%     -  204s
H    0     0                    1.696878e+09 1.7027e+09  0.34%     -  373s
     0     0 1.7027e+09    0  288 1.6969e+09 1.7027e+09  0.34%     -  382s
     0     0 1.7027e+09    0  283 1.6969e+09 1.7027e+09  0.34%     -  385s
     0     0 1.7027e+09    0  283 1.6969e+09 1.7027e+09  0.34%     -  387s
     0     0 1.7027e+09    0  284 1.6969e+09 1.7027e+09  0.34%     -  388s
     0     0 1.7027e+09    0  314 1.6969e+09 1.7027e+09  0.34%     -  405s
     0     0 1.7027e+09    0  298 1.6969e+09 1.7027e+09  0.34%     -  463s
     0     0 1.7027e+09    0  297 1.6969e+09 1.7027e+09  0.34%     -  464s
     0     0 1.7027e+09    0  299 1.6969e+09 1.7027e+09  0.34%     -  491s
     0     0 1.7027e+09    0  299 1.6969e+09 1.7027e+09  0.34%     -  509s
     0     0 1.7027e+09    0  285 1.6969e+09 1.7027e+09  0.34%     -  519s
     0     0 1.7027e+09    0  303 1.6969e+09 1.7027e+09  0.34%     -  580s
     0     0 1.7027e+09    0  281 1.6969e+09 1.7027e+09  0.34%     -  582s
     0     0 1.7027e+09    0  316 1.6969e+09 1.7027e+09  0.34%     -  600s
     0     0 1.7027e+09    0  304 1.6969e+09 1.7027e+09  0.34%     -  610s
     0     0 1.7027e+09    0  307 1.6969e+09 1.7027e+09  0.34%     -  611s
     0     0 1.7027e+09    0  322 1.6969e+09 1.7027e+09  0.34%     -  620s
     0     0 1.7027e+09    0  325 1.6969e+09 1.7027e+09  0.34%     -  625s
     0     0 1.7027e+09    0  308 1.6969e+09 1.7027e+09  0.34%     -  630s
     0     0 1.7027e+09    0  310 1.6969e+09 1.7027e+09  0.34%     -  634s
     0     0 1.7027e+09    0  325 1.6969e+09 1.7027e+09  0.34%     -  641s
     0     0 1.7027e+09    0  299 1.6969e+09 1.7027e+09  0.34%     -  659s
     0     2 1.7027e+09    0  299 1.6969e+09 1.7027e+09  0.34%     -  714s
     1     4 1.7027e+09    1  300 1.6969e+09 1.7027e+09  0.34%  8782  747s
     3     8 1.7027e+09    2  302 1.6969e+09 1.7027e+09  0.34%  3534  787s
     7    16 1.7027e+09    3  317 1.6969e+09 1.7027e+09  0.34%  1952  836s
    15    32 1.7027e+09    4  316 1.6969e+09 1.7027e+09  0.34%  1173  874s
    26    32 1.7026e+09    4  261 1.6969e+09 1.7027e+09  0.34%   886  875s
H   31    52                    1.697685e+09 1.7027e+09  0.29%   855 1964s
H   33    52                    1.697775e+09 1.7027e+09  0.29%   863 1965s
H   39    52                    1.697915e+09 1.7027e+09  0.28%   835 1967s
H   40    52                    1.698100e+09 1.7027e+09  0.27%   836 1969s
H   45    52                    1.698348e+09 1.7027e+09  0.25%   823 1970s
    51    72 1.7027e+09    6  321 1.6983e+09 1.7027e+09  0.25%   932 2303s
    71    92 1.7027e+09    7  319 1.6983e+09 1.7027e+09  0.25%   838 2341s
    91   112 1.7027e+09    7  293 1.6983e+09 1.7027e+09  0.25%   776 2383s
   111   141 1.7027e+09    8  315 1.6983e+09 1.7027e+09  0.25%   690 2430s
   140   227 1.7027e+09    9  299 1.6983e+09 1.7027e+09  0.25%   632 2547s
   226   418 1.7026e+09   13  316 1.6983e+09 1.7027e+09  0.25%   565 2816s
   418   791 1.7026e+09   21  313 1.6983e+09 1.7027e+09  0.25%   615 3217s
   808  1300 1.7024e+09   25  281 1.6983e+09 1.7027e+09  0.25%   600 3582s
H 1085  1300                    1.698353e+09 1.7027e+09  0.25%   573 3584s
  1321  1366 1.7024e+09   36  227 1.6984e+09 1.7027e+09  0.25%   497 4186s
H 1322  1366                    1.698353e+09 1.7027e+09  0.25%   497 4187s
H 1379  1366                    1.698364e+09 1.7027e+09  0.25%   490 4189s
H 1383  1366                    1.698367e+09 1.7027e+09  0.25%   489 4191s
  1396  1949 1.7024e+09   37  227 1.6984e+09 1.7027e+09  0.25%   485 4465s
  2004  2531 1.7023e+09   57  166 1.6984e+09 1.7027e+09  0.25%   407 4681s
  2633  3054 1.7023e+09   85  152 1.6984e+09 1.7027e+09  0.25%   353 4867s
H 2812  3050                    1.698466e+09 1.7027e+09  0.25%   344 4869s
  3185  3678 1.7023e+09  115  155 1.6985e+09 1.7027e+09  0.25%   313 5037s
  3844  4095 1.7022e+09  148  122 1.6985e+09 1.7027e+09  0.25%   279 5197s
H 3922  4095                    1.698466e+09 1.7027e+09  0.25%   275 5198s
H 4187  4095                    1.698485e+09 1.7027e+09  0.25%   263 5200s
  4295  4741 1.7022e+09  157  144 1.6985e+09 1.7027e+09  0.25%   259 5344s
  4973  5406 1.7022e+09  190  123 1.6985e+09 1.7027e+09  0.25%   237 5480s
H 5660  5875                    1.698485e+09 1.7027e+09  0.25%   220 5663s
  6153  6569 1.7021e+09  238   90 1.6985e+09 1.7027e+09  0.25%   209 5795s
  6871  7032 1.7021e+09  271   87 1.6985e+09 1.7027e+09  0.25%   194 5956s
H 7200  7032                    1.698488e+09 1.7027e+09  0.25%   189 5958s
  7357  7697 1.7021e+09  307   94 1.6985e+09 1.7027e+09  0.25%   186 6076s
  8058  8385 1.7021e+09  342   91 1.6985e+09 1.7027e+09  0.25%   176 6170s
  8778  9080 1.7021e+09  378   94 1.6985e+09 1.7027e+09  0.25%   167 6269s
  9498  9772 1.7021e+09  414   98 1.6985e+09 1.7027e+09  0.25%   158 6363s
 10218 10456 1.7020e+09  446  101 1.6985e+09 1.7027e+09  0.25%   150 6468s
 10931 11130 1.7020e+09  482  101 1.6985e+09 1.7027e+09  0.25%   143 6568s

Cutting planes:
  Cover: 23
  Implied bound: 49
  MIR: 36
  Flow cover: 32
  GUB cover: 2
  RLT: 11
  Relax-and-lift: 5

Explored 11639 nodes (1668031 simplex iterations) in 10800.75 seconds (11838.29 work units)
Thread count was 20 (of 40 available processors)

Solution count 10: 1.69849e+09 1.69848e+09 1.69847e+09 ... 1.6981e+09

Time limit reached
Best objective 1.698487640313e+09, best bound 1.702660713932e+09, gap 0.2457%
